1 100 565 105
0 40.0 50.0 0.0 0.0 0 1236
2 45.0 68.0 90.0 10.0 890 989 1 5
3 45.0 70.0 90.0 30.0 816 879 2 5
4 42.0 66.0 90.0 10.0 55 156 3 5
5 42.0 68.0 90.0 10.0 703 806 4 5
6 42.0 65.0 90.0 10.0 15 60 5 5
7 40.0 69.0 90.0 20.0 559 764 6 10
8 40.0 66.0 90.0 20.0 172 223 7 10
9 38.0 68.0 90.0 20.0 250 329 8 10
10 38.0 70.0 90.0 10.0 489 650 9 10
11 35.0 66.0 90.0 10.0 361 406 10 10
12 35.0 69.0 90.0 10.0 450 503 11 15
13 25.0 85.0 90.0 20.0 647 726 12 15
14 22.0 75.0 90.0 30.0 30 95 13 15
15 22.0 85.0 90.0 10.0 571 616 14 15
16 20.0 80.0 90.0 40.0 392 421 15 15
17 20.0 85.0 90.0 40.0 478 525 16 5
18 18.0 75.0 90.0 20.0 105 142 17 5
19 15.0 75.0 90.0 20.0 172 261 18 5
20 15.0 80.0 90.0 10.0 274 349 19 5
21 30.0 50.0 90.0 10.0 10 77 20 5
22 30.0 52.0 90.0 20.0 918 961 21 10
23 28.0 52.0 90.0 20.0 806 889 22 10
24 28.0 55.0 90.0 10.0 739 770 23 10
25 25.0 50.0 90.0 10.0 55 154 24 10
26 25.0 52.0 90.0 40.0 172 221 25 10
27 25.0 55.0 90.0 10.0 612 711 26 15
28 23.0 52.0 90.0 10.0 264 313 27 15
29 23.0 55.0 90.0 20.0 553 586 28 15
30 20.0 50.0 90.0 10.0 365 398 29 15
31 20.0 55.0 90.0 10.0 452 501 30 15
32 10.0 35.0 90.0 20.0 204 233 31 5
33 10.0 40.0 90.0 30.0 31 189 32 5
34 8.0 40.0 90.0 40.0 42 203 33 5
35 8.0 45.0 90.0 20.0 715 852 34 5
36 5.0 35.0 90.0 10.0 251 376 35 5
37 5.0 45.0 90.0 10.0 648 733 36 10
38 2.0 40.0 90.0 20.0 365 452 37 10
39 0.0 40.0 90.0 30.0 474 527 38 10
40 0.0 45.0 90.0 20.0 541 650 39 10
41 35.0 30.0 90.0 10.0 240 345 40 10
42 35.0 32.0 90.0 10.0 123 278 41 15
43 33.0 32.0 90.0 20.0 19 225 42 15
44 33.0 35.0 90.0 10.0 16 153 43 15
45 32.0 30.0 90.0 10.0 338 433 44 15
46 30.0 30.0 90.0 10.0 513 628 45 15
47 30.0 32.0 90.0 30.0 415 542 46 5
48 30.0 35.0 90.0 10.0 872 1127 47 5
49 28.0 30.0 90.0 10.0 599 726 48 5
50 28.0 35.0 90.0 10.0 917 1126 49 5
51 26.0 32.0 90.0 10.0 779 916 50 5
52 25.0 30.0 90.0 10.0 695 816 51 10
53 25.0 35.0 90.0 10.0 857 1024 52 10
54 44.0 5.0 90.0 20.0 221 412 53 10
55 42.0 10.0 90.0 40.0 96 347 54 10
56 42.0 15.0 90.0 10.0 35 233 55 10
57 40.0 5.0 90.0 30.0 347 474 56 15
58 40.0 15.0 90.0 40.0 35 172 57 15
59 38.0 5.0 90.0 30.0 403 602 58 15
60 38.0 15.0 90.0 10.0 521 870 59 15
61 35.0 5.0 90.0 20.0 487 704 60 15
62 50.0 30.0 90.0 10.0 422 719 61 5
63 50.0 35.0 90.0 20.0 217 362 62 5
64 50.0 40.0 90.0 50.0 142 247 63 5
65 48.0 30.0 90.0 10.0 567 758 64 5
66 48.0 40.0 90.0 10.0 34 171 65 5
67 47.0 35.0 90.0 10.0 794 907 66 10
68 47.0 40.0 90.0 10.0 12 226 67 10
69 45.0 30.0 90.0 10.0 716 795 68 10
70 45.0 35.0 90.0 10.0 873 1012 69 10
71 95.0 30.0 90.0 30.0 266 577 70 10
72 95.0 35.0 90.0 20.0 181 472 71 15
73 53.0 30.0 90.0 10.0 402 553 72 15
74 92.0 30.0 90.0 10.0 345 684 73 15
75 53.0 35.0 90.0 50.0 294 471 74 15
76 45.0 65.0 90.0 20.0 951 1114 75 15
77 90.0 35.0 90.0 10.0 153 310 76 5
78 88.0 30.0 90.0 10.0 450 767 77 5
79 88.0 35.0 90.0 20.0 50 237 78 5
80 87.0 30.0 90.0 10.0 567 832 79 5
81 85.0 25.0 90.0 10.0 713 876 80 5
82 85.0 35.0 90.0 30.0 47 331 81 10
83 75.0 55.0 90.0 20.0 311 478 82 10
84 72.0 55.0 90.0 10.0 127 476 83 10
85 70.0 58.0 90.0 20.0 349 632 84 10
86 68.0 60.0 90.0 30.0 476 691 85 10
87 66.0 55.0 90.0 10.0 67 344 86 15
88 65.0 55.0 90.0 20.0 25 256 87 15
89 65.0 60.0 90.0 30.0 546 807 88 15
90 63.0 58.0 90.0 10.0 630 909 89 15
91 60.0 55.0 90.0 10.0 20 293 90 15
92 60.0 60.0 90.0 10.0 769 956 91 5
93 67.0 85.0 90.0 20.0 229 580 92 5
94 65.0 85.0 90.0 40.0 442 551 93 5
95 65.0 82.0 90.0 10.0 227 394 94 5
96 62.0 80.0 90.0 30.0 163 272 95 5
97 60.0 80.0 90.0 10.0 36 291 96 10
98 60.0 85.0 90.0 30.0 469 714 97 10
99 58.0 75.0 90.0 20.0 30 227 98 10
100 55.0 80.0 90.0 10.0 595 968 99 10
101 55.0 85.0 90.0 20.0 493 880 100 10